
Log started (V11.0.0) Tue May 13 17:38:24 2008

Tried aggregator 1 time.
Reduced MIP has 110 rows, 1001 columns, and 2010 nonzeros.
Presolve time =   -0.00 sec.
Clique table members: 100.
MIP emphasis: balance optimality and feasibility.
MIP search method: dynamic search.
Parallel mode: none, using 1 thread.
Root relaxation solution time =    0.01 sec.

        Nodes                                         Cuts/
   Node  Left     Objective  IInf  Best Integer     Best Node    ItCnt     Gap

*     0+    0                         4088.0000      344.9756      149   91.56%
*     0+    0                          378.0000      344.9756      149    8.74%
      0     0      345.6037    22      378.0000      Fract: 7      170    8.57%
*     0+    0                          374.0000      345.6037      170    7.59%
      0     0      347.0157    35      374.0000      Cuts: 11      233    7.22%
      0     0      348.6096    41      374.0000       Cuts: 8      282    6.79%
      0     0      348.7221    52      374.0000       Cuts: 8      325    6.76%
      0     0      348.8287    50      374.0000       Cuts: 6      353    6.73%
      0     0      348.8675    62      374.0000    MIRcuts: 6      381    6.72%
      0     0      348.9965    56      374.0000    MIRcuts: 6      412    6.69%
*     0+    0                          373.0000      348.9965      412    6.44%
      0     0      349.0184    55      373.0000    MIRcuts: 3      436    6.43%
      0     0      349.0460    61      373.0000    MIRcuts: 5      452    6.42%
*     0+    0                          359.0000      349.0460      452    2.77%
*     0+    0                          357.0000      349.0460      452    2.23%
      0     2      349.0460    61      357.0000      349.0460      452    2.23%
    100    84      351.5563    18      357.0000      349.0763     2664    2.22%
    200   141      353.0000    17      357.0000      349.0763     5298    2.22%
    300   215      350.0000    18      357.0000      350.0000     6459    1.96%
    400   305      351.0000    18      357.0000      350.0000     8117    1.96%
    500   365      354.0000    12      357.0000      354.0000    10417    0.84%
    600   353      356.0000    21      357.0000      354.0000    13286    0.84%
*   611+  228                          356.0000      354.0000    13611    0.56%
    700   170        cutoff            356.0000      355.0000    16577    0.28%

Cover cuts applied:  45
Mixed integer rounding cuts applied:  13
Gomory fractional cuts applied:  1

Solution pool: 7 solutions saved.

MIP - Integer optimal solution:  Objective = 3.5600000000e+002
Solution time =    4.13 sec.  Iterations = 19083  Nodes = 750 (91)


Incumbent solution
Variable Name           Solution Value
Cmax                        356.000000
X_1_9                         1.000000
X_2_2                         1.000000
X_3_3                         1.000000
X_4_5                         1.000000
X_5_7                         1.000000
X_6_9                         1.000000
X_7_7                         1.000000
X_8_7                         1.000000
X_9_7                         1.000000
X_10_7                        1.000000
X_11_8                        1.000000
X_12_7                        1.000000
X_13_7                        1.000000
X_14_6                        1.000000
X_15_6                        1.000000
X_16_3                        1.000000
X_17_8                        1.000000
X_18_7                        1.000000
X_19_3                        1.000000
X_20_5                        1.000000
X_21_7                        1.000000
X_22_6                        1.000000
X_23_8                        1.000000
X_24_9                        1.000000
X_25_5                        1.000000
X_26_4                        1.000000
X_27_4                        1.000000
X_28_3                        1.000000
X_29_10                       1.000000
X_30_7                        1.000000
X_31_7                        1.000000
X_32_1                        1.000000
X_33_9                        1.000000
X_34_7                        1.000000
X_35_7                        1.000000
X_36_9                        1.000000
X_37_3                        1.000000
X_38_1                        1.000000
X_39_7                        1.000000
X_40_7                        1.000000
X_41_6                        1.000000
X_42_5                        1.000000
X_43_3                        1.000000
X_44_7                        1.000000
X_45_8                        1.000000
X_46_7                        1.000000
X_47_9                        1.000000
X_48_7                        1.000000
X_49_9                        1.000000
X_50_9                        1.000000
X_51_7                        1.000000
X_52_4                        1.000000
X_53_3                        1.000000
X_54_5                        1.000000
X_55_2                        1.000000
X_56_7                        1.000000
X_57_9                        1.000000
X_58_7                        1.000000
X_59_7                        1.000000
X_60_4                        1.000000
X_61_1                        1.000000
X_62_7                        1.000000
X_63_10                       1.000000
X_64_4                        1.000000
X_65_2                        1.000000
X_66_10                       1.000000
X_67_2                        1.000000
X_68_9                        1.000000
X_69_9                        1.000000
X_70_4                        1.000000
X_71_2                        1.000000
X_72_7                        1.000000
X_73_9                        1.000000
X_74_7                        1.000000
X_75_10                       1.000000
X_76_10                       1.000000
X_77_9                        1.000000
X_78_9                        1.000000
X_79_9                        1.000000
X_80_9                        1.000000
X_81_10                       1.000000
X_82_9                        1.000000
X_83_7                        1.000000
X_84_9                        1.000000
X_85_4                        1.000000
X_86_10                       1.000000
X_87_7                        1.000000
X_88_7                        1.000000
X_89_10                       1.000000
X_90_3                        1.000000
X_91_9                        1.000000
X_92_3                        1.000000
X_93_3                        1.000000
X_94_5                        1.000000
X_95_4                        1.000000
X_96_9                        1.000000
X_97_10                       1.000000
X_98_9                        1.000000
X_99_10                       1.000000
X_100_1                       1.000000
All other variables in the range 1-1001 are 0.
